171
10000
88
5412
2863
928
8742
1228
1167
1087
9701
3502
4003
1816
2634
903
3544
4976
2459
4028
2018
6932
5990
5923
2470
2230
7137
8403
8669
1244
2792
6819
723
5894
4010
343
6007
6884
2014
7250
2548
307
2849
6303
7228
571
3823
555
4270
4106
3082
1610
7747
7407
12
1195
8123
398
9912
5065
4732
6516
7023
4588
5197
2772
6247
1951
1716
1328
87
3287
1896
4722
5755
499
6684
3620
3604
196
299
2869
1702
3316
1062
1597
101
23
8532
1110
3068
2932
2752
1608
5837
7977
1473
2409
2099
5775
2185
4020
3705
4729
1180
6269
8719
3130
601
8043
2656
6295
6280
3697
1262
5
1405
2521
3340
3572
964
1281
1555
1252
1690
1845
1877
551
6386
4803
6877
3920
7208
2133
2133
1598
1015
6632
1741
6660
1359
8772
5203
751
2148
3368
3157
2351
2474
1029
5051
4077
3289
3459
7562
1468
8187
678
1692
1864
5024
3484
82
2147
3614
4262
673
3014
1513
8259
3
5262
84
